Welcome to the CBC MILP Solver 
Version: 2.10.7 
Build Date: Feb 14 2022 

command line - cbc inputs/new_no_tr/order/jump35_up_right_input.lp sec 1800 solve solu solutions/new_no_tr/jump35_up_right_input.lp (default strategy 1)
seconds was changed from 1e+100 to 1800
Continuous objective value is 29696 - 0.23 seconds
Cgl0002I 102 variables fixed
Cgl0003I 0 fixed, 9 tightened bounds, 678 strengthened rows, 0 substitutions
Cgl0003I 0 fixed, 0 tightened bounds, 28 strengthened rows, 0 substitutions
Cgl0004I processed model has 3621 rows, 1141 columns (1141 integer (1105 of which binary)) and 12508 elements
Cutoff increment increased from 1e-05 to 0.9999
Cbc0045I 1 integer variables out of 1141 objects (1141 integer) have cost of 1 - high priority
Cbc0045I branch on satisfied Y create fake objective Y random cost Y
Cbc0038I Initial state - 631 integers unsatisfied sum - 197.303
Cbc0038I Pass   1: (1.05 seconds) suminf.   77.75273 (487) obj. 58577.4 iterations 1681
Cbc0038I Pass   2: (1.20 seconds) suminf.   51.18326 (448) obj. 66012.8 iterations 962
Cbc0038I Pass   3: (1.27 seconds) suminf.   44.32949 (442) obj. 65774.1 iterations 388
Cbc0038I Pass   4: (1.33 seconds) suminf.   44.68918 (437) obj. 65991.7 iterations 290
Cbc0038I Pass   5: (1.36 seconds) suminf.   43.35658 (438) obj. 66041.6 iterations 140
Cbc0038I Pass   6: (1.47 seconds) suminf.   39.09558 (455) obj. 66205.7 iterations 697
Cbc0038I Pass   7: (1.53 seconds) suminf.   38.08498 (447) obj. 66078.4 iterations 325
Cbc0038I Pass   8: (1.55 seconds) suminf.   37.82264 (442) obj. 66090.9 iterations 29
Cbc0038I Pass   9: (1.59 seconds) suminf.   38.30443 (444) obj. 65950.8 iterations 193
Cbc0038I Pass  10: (1.62 seconds) suminf.   37.35672 (430) obj. 65950.4 iterations 142
Cbc0038I Pass  11: (1.70 seconds) suminf.   37.38608 (437) obj. 65790.3 iterations 431
Cbc0038I Pass  12: (1.75 seconds) suminf.   34.16088 (432) obj. 65934.2 iterations 218
Cbc0038I Pass  13: (1.84 seconds) suminf.   35.28812 (436) obj. 65871.8 iterations 508
Cbc0038I Pass  14: (1.87 seconds) suminf.   32.39162 (416) obj. 65771.2 iterations 112
Cbc0038I Pass  15: (1.87 seconds) suminf.   32.09066 (418) obj. 65792.6 iterations 11
Cbc0038I Pass  16: (1.96 seconds) suminf.   34.69810 (416) obj. 66105 iterations 557
Cbc0038I Pass  17: (2.02 seconds) suminf.   32.78909 (419) obj. 66177.2 iterations 308
Cbc0038I Pass  18: (2.04 seconds) suminf.   32.60510 (415) obj. 66175.6 iterations 94
Cbc0038I Pass  19: (2.15 seconds) suminf.   36.75238 (435) obj. 65872 iterations 658
Cbc0038I Pass  20: (2.21 seconds) suminf.   37.86424 (436) obj. 66091.5 iterations 276
Cbc0038I Pass  21: (2.26 seconds) suminf.   36.57112 (420) obj. 66072.7 iterations 336
Cbc0038I Pass  22: (2.30 seconds) suminf.   33.95391 (397) obj. 66011.5 iterations 129
Cbc0038I Pass  23: (2.33 seconds) suminf.   31.57082 (423) obj. 66032.1 iterations 161
Cbc0038I Pass  24: (2.34 seconds) suminf.   32.84857 (423) obj. 66042.5 iterations 30
Cbc0038I Pass  25: (2.42 seconds) suminf.   30.34394 (365) obj. 66045.9 iterations 456
Cbc0038I Pass  26: (2.46 seconds) suminf.   31.15484 (355) obj. 66097.1 iterations 207
Cbc0038I Pass  27: (2.55 seconds) suminf.   30.76865 (409) obj. 65952.8 iterations 536
Cbc0038I Pass  28: (2.56 seconds) suminf.   29.79170 (411) obj. 65922.8 iterations 48
Cbc0038I Pass  29: (2.58 seconds) suminf.   29.33833 (410) obj. 65879.3 iterations 72
Cbc0038I Pass  30: (2.64 seconds) suminf.   32.96218 (404) obj. 65799.1 iterations 350
Cbc0038I Pass  31: (2.66 seconds) suminf.   32.92032 (406) obj. 65796.2 iterations 48
Cbc0038I Pass  32: (2.75 seconds) suminf.   32.40428 (386) obj. 65455.4 iterations 542
Cbc0038I Pass  33: (2.78 seconds) suminf.   32.24434 (395) obj. 65798.9 iterations 157
Cbc0038I Pass  34: (2.89 seconds) suminf.   30.99458 (384) obj. 64709.9 iterations 643
Cbc0038I Pass  35: (2.97 seconds) suminf.   28.15500 (369) obj. 65088.1 iterations 536
Cbc0038I Pass  36: (2.98 seconds) suminf.   28.32283 (370) obj. 65097.3 iterations 9
Cbc0038I Pass  37: (3.08 seconds) suminf.   30.09011 (406) obj. 65334.7 iterations 635
Cbc0038I Pass  38: (3.13 seconds) suminf.   29.25349 (408) obj. 65193.6 iterations 251
Cbc0038I Pass  39: (3.18 seconds) suminf.   26.03938 (395) obj. 65313 iterations 267
Cbc0038I Pass  40: (3.18 seconds) suminf.   26.19892 (394) obj. 65270.6 iterations 5
Cbc0038I Pass  41: (3.33 seconds) suminf.   26.02868 (351) obj. 65391 iterations 1005
Cbc0038I Pass  42: (3.37 seconds) suminf.   23.64387 (354) obj. 65434.9 iterations 231
Cbc0038I Pass  43: (3.47 seconds) suminf.   26.13725 (328) obj. 66447.3 iterations 623
Cbc0038I Pass  44: (3.51 seconds) suminf.   25.04276 (308) obj. 65496.9 iterations 174
Cbc0038I Pass  45: (3.59 seconds) suminf.   20.02672 (278) obj. 64937.6 iterations 530
Cbc0038I Pass  46: (3.60 seconds) suminf.   20.13759 (276) obj. 64851.4 iterations 94
Cbc0038I Pass  47: (3.68 seconds) suminf.   21.95477 (282) obj. 65303.2 iterations 462
Cbc0038I Pass  48: (3.72 seconds) suminf.   20.00473 (283) obj. 65315.2 iterations 256
Cbc0038I Pass  49: (3.80 seconds) suminf.   22.12888 (256) obj. 65217.3 iterations 532
Cbc0038I Pass  50: (3.83 seconds) suminf.   19.00016 (264) obj. 65188.1 iterations 197
Cbc0038I Pass  51: (3.98 seconds) suminf.   21.40028 (249) obj. 64784.8 iterations 1056
Cbc0038I Pass  52: (4.00 seconds) suminf.   19.33227 (245) obj. 64855 iterations 101
Cbc0038I Pass  53: (4.01 seconds) suminf.   19.30875 (245) obj. 64676.7 iterations 67
Cbc0038I Pass  54: (4.06 seconds) suminf.   17.90319 (216) obj. 64455.2 iterations 352
Cbc0038I Pass  55: (4.08 seconds) suminf.   16.84763 (213) obj. 64456.6 iterations 97
Cbc0038I Pass  56: (4.10 seconds) suminf.   15.28731 (205) obj. 64240.3 iterations 153
Cbc0038I Pass  57: (4.15 seconds) suminf.   15.39401 (191) obj. 64055.4 iterations 344
Cbc0038I Pass  58: (4.17 seconds) suminf.   13.78251 (189) obj. 64062.1 iterations 148
Cbc0038I Pass  59: (4.27 seconds) suminf.   11.30115 (142) obj. 55952.4 iterations 763
Cbc0038I Pass  60: (4.30 seconds) suminf.    9.24587 (130) obj. 55991.1 iterations 199
Cbc0038I Pass  61: (4.41 seconds) suminf.    6.22283 (96) obj. 59504 iterations 892
Cbc0038I Pass  62: (4.42 seconds) suminf.    6.48256 (94) obj. 59547.5 iterations 52
Cbc0038I Pass  63: (4.46 seconds) suminf.    4.11123 (69) obj. 59678 iterations 204
Cbc0038I Pass  64: (4.48 seconds) suminf.    2.56960 (57) obj. 59520.2 iterations 138
Cbc0038I Pass  65: (4.57 seconds) suminf.    2.13682 (12) obj. 52224 iterations 623
Cbc0038I Pass  66: (4.57 seconds) suminf.    0.00000 (0) obj. 52224 iterations 3
Cbc0038I Solution found of 52224
Cbc0038I Cleaned solution of 52224
Cbc0038I Before mini branch and bound, 209 integers at bound fixed and 0 continuous
Cbc0038I Mini branch and bound did not improve solution (4.62 seconds)
Cbc0038I Round again with cutoff of 49970.3
Cbc0038I Pass  67: (4.66 seconds) suminf.   83.94899 (478) obj. 49970 iterations 170
Cbc0038I Pass  68: (4.77 seconds) suminf.   53.27722 (450) obj. 49970.3 iterations 692
Cbc0038I Pass  69: (4.85 seconds) suminf.   48.29978 (477) obj. 49970.3 iterations 463
Cbc0038I Pass  70: (4.88 seconds) suminf.   47.23207 (444) obj. 49970.3 iterations 131
Cbc0038I Pass  71: (4.91 seconds) suminf.   47.88295 (451) obj. 49970.3 iterations 138
Cbc0038I Pass  72: (4.95 seconds) suminf.   50.62643 (431) obj. 49970.3 iterations 210
Cbc0038I Pass  73: (4.96 seconds) suminf.   49.14002 (435) obj. 49970.3 iterations 29
Cbc0038I Pass  74: (5.05 seconds) suminf.   41.48666 (436) obj. 49970.3 iterations 580
Cbc0038I Pass  75: (5.07 seconds) suminf.   41.69473 (432) obj. 49970.3 iterations 112
Cbc0038I Pass  76: (5.13 seconds) suminf.   39.06057 (444) obj. 49970.3 iterations 341
Cbc0038I Pass  77: (5.15 seconds) suminf.   39.14969 (438) obj. 49970.3 iterations 45
Cbc0038I Pass  78: (5.17 seconds) suminf.   38.15263 (429) obj. 49970.3 iterations 100
Cbc0038I Pass  79: (5.19 seconds) suminf.   37.85702 (415) obj. 49970.3 iterations 89
Cbc0038I Pass  80: (5.27 seconds) suminf.   36.27392 (423) obj. 49970.3 iterations 483
Cbc0038I Pass  81: (5.31 seconds) suminf.   34.48484 (434) obj. 49970.3 iterations 214
Cbc0038I Pass  82: (5.37 seconds) suminf.   32.43030 (425) obj. 49970.3 iterations 308
Cbc0038I Pass  83: (5.45 seconds) suminf.   33.14369 (387) obj. 49970.3 iterations 485
Cbc0038I Pass  84: (5.46 seconds) suminf.   33.08226 (389) obj. 49970.3 iterations 29
Cbc0038I Pass  85: (5.52 seconds) suminf.   32.16235 (389) obj. 49970.3 iterations 341
Cbc0038I Pass  86: (5.56 seconds) suminf.   32.33436 (380) obj. 49970.3 iterations 190
Cbc0038I Pass  87: (5.57 seconds) suminf.   32.45650 (362) obj. 49970.3 iterations 90
Cbc0038I Pass  88: (5.65 seconds) suminf.   34.93901 (366) obj. 49970.3 iterations 487
Cbc0038I Pass  89: (5.68 seconds) suminf.   32.81885 (353) obj. 49970.3 iterations 185
Cbc0038I Pass  90: (5.71 seconds) suminf.   32.37617 (373) obj. 49970.3 iterations 115
Cbc0038I Pass  91: (5.75 seconds) suminf.   32.64673 (370) obj. 49970.3 iterations 265
Cbc0038I Pass  92: (5.80 seconds) suminf.   30.67143 (369) obj. 49970.3 iterations 237
Cbc0038I Pass  93: (5.88 seconds) suminf.   32.08818 (358) obj. 49970.3 iterations 510
Cbc0038I Pass  94: (5.94 seconds) suminf.   27.36797 (349) obj. 49970.3 iterations 408
Cbc0038I Pass  95: (6.02 seconds) suminf.   28.41095 (367) obj. 49970.3 iterations 500
Cbc0038I Pass  96: (6.08 seconds) suminf.   26.23168 (363) obj. 49970.3 iterations 391
Cbc0038I Pass  97: (6.18 seconds) suminf.   26.71641 (387) obj. 49970.3 iterations 671
Cbc0038I Pass  98: (6.23 seconds) suminf.   27.64832 (386) obj. 49970.3 iterations 254
Cbc0038I Pass  99: (6.35 seconds) suminf.   27.11528 (352) obj. 49970.3 iterations 798
Cbc0038I Pass 100: (6.39 seconds) suminf.   27.06777 (360) obj. 49970.3 iterations 182
Cbc0038I Pass 101: (6.48 seconds) suminf.   26.59550 (380) obj. 49970.3 iterations 536
Cbc0038I Pass 102: (6.52 seconds) suminf.   26.36971 (386) obj. 49970.3 iterations 217
Cbc0038I Pass 103: (6.59 seconds) suminf.   25.37561 (346) obj. 49970.3 iterations 490
Cbc0038I Pass 104: (6.64 seconds) suminf.   26.05618 (350) obj. 49970.3 iterations 268
Cbc0038I Pass 105: (6.68 seconds) suminf.   26.31704 (350) obj. 49970.3 iterations 170
Cbc0038I Pass 106: (6.76 seconds) suminf.   25.49750 (349) obj. 49970.3 iterations 571
Cbc0038I Pass 107: (6.80 seconds) suminf.   24.70747 (354) obj. 49970.3 iterations 167
Cbc0038I Pass 108: (6.88 seconds) suminf.   23.40522 (309) obj. 49970.3 iterations 503
Cbc0038I Pass 109: (6.88 seconds) suminf.   23.41791 (310) obj. 49970.3 iterations 13
Cbc0038I Pass 110: (6.97 seconds) suminf.   24.49307 (289) obj. 49970.3 iterations 581
Cbc0038I Pass 111: (7.04 seconds) suminf.   20.36428 (289) obj. 49970.3 iterations 425
Cbc0038I Pass 112: (7.12 seconds) suminf.   22.93929 (280) obj. 49970.3 iterations 573
Cbc0038I Pass 113: (7.16 seconds) suminf.   21.85507 (274) obj. 49970.3 iterations 167
Cbc0038I Pass 114: (7.26 seconds) suminf.   21.82862 (235) obj. 49970.3 iterations 704
Cbc0038I Pass 115: (7.26 seconds) suminf.   21.76762 (234) obj. 49970.3 iterations 21
Cbc0038I Pass 116: (7.32 seconds) suminf.   21.49640 (248) obj. 49970.3 iterations 374
Cbc0038I Pass 117: (7.36 seconds) suminf.   19.76480 (249) obj. 49970.3 iterations 195
Cbc0038I Pass 118: (7.40 seconds) suminf.   20.78578 (254) obj. 49970.3 iterations 314
Cbc0038I Pass 119: (7.43 seconds) suminf.   18.86762 (259) obj. 49970.3 iterations 172
Cbc0038I Pass 120: (7.50 seconds) suminf.   22.85058 (219) obj. 49970.3 iterations 445
Cbc0038I Pass 121: (7.54 seconds) suminf.   20.89981 (208) obj. 49970.3 iterations 209
Cbc0038I Pass 122: (7.59 seconds) suminf.   22.66153 (202) obj. 49970.3 iterations 344
Cbc0038I Pass 123: (7.61 seconds) suminf.   20.10344 (200) obj. 49970.3 iterations 125
Cbc0038I Pass 124: (7.69 seconds) suminf.   17.77995 (149) obj. 49970.3 iterations 540
Cbc0038I Pass 125: (7.70 seconds) suminf.   16.20933 (152) obj. 49970.3 iterations 48
Cbc0038I Pass 126: (7.73 seconds) suminf.   10.88098 (125) obj. 49970.3 iterations 251
Cbc0038I Pass 127: (7.74 seconds) suminf.   10.42778 (125) obj. 49970.3 iterations 57
Cbc0038I Pass 128: (7.78 seconds) suminf.    8.78376 (101) obj. 49970.3 iterations 309
Cbc0038I Pass 129: (7.78 seconds) suminf.    8.57701 (102) obj. 49970.3 iterations 15
Cbc0038I Pass 130: (7.83 seconds) suminf.    8.02147 (83) obj. 49970.3 iterations 385
Cbc0038I Pass 131: (7.85 seconds) suminf.    4.49037 (64) obj. 49970.3 iterations 152
Cbc0038I Pass 132: (7.87 seconds) suminf.    4.35678 (69) obj. 49970.3 iterations 97
Cbc0038I Pass 133: (7.94 seconds) suminf.    4.05073 (47) obj. 49970.3 iterations 527
Cbc0038I Pass 134: (7.95 seconds) suminf.    2.45086 (61) obj. 49970.3 iterations 83
Cbc0038I Pass 135: (7.99 seconds) suminf.    8.86280 (45) obj. 49970.3 iterations 299
Cbc0038I Pass 136: (8.00 seconds) suminf.    3.81569 (40) obj. 49970.3 iterations 96
Cbc0038I Pass 137: (8.02 seconds) suminf.    0.88126 (13) obj. 49970.3 iterations 100
Cbc0038I Pass 138: (8.04 seconds) suminf.    0.88126 (13) obj. 49970.3 iterations 1
Cbc0038I Pass 139: (8.04 seconds) suminf.    0.30009 (1) obj. 49970.3 iterations 33
Cbc0038I Solution found of 49970.3
Cbc0038I Branch and bound needed to clear up 1 general integers
Cbc0038I Full problem 3622 rows 1141 columns, reduced to 0 rows 0 columns
Cbc0038I Cleaned solution of 48128
Cbc0038I Before mini branch and bound, 219 integers at bound fixed and 0 continuous
Cbc0038I Full problem 3621 rows 1141 columns, reduced to 3144 rows 922 columns - 200 fixed gives 1870, 532 - still too large
Cbc0038I Full problem 3621 rows 1141 columns, reduced to 195 rows 70 columns
Cbc0038I Mini branch and bound did not improve solution (8.59 seconds)
Cbc0038I Round again with cutoff of 44440.8
Cbc0038I Pass 140: (8.62 seconds) suminf.   85.38015 (473) obj. 44440.8 iterations 102
Cbc0038I Pass 141: (8.73 seconds) suminf.   56.44381 (451) obj. 44440.8 iterations 720
Cbc0038I Pass 142: (8.80 seconds) suminf.   47.80464 (454) obj. 44440.8 iterations 426
Cbc0038I Pass 143: (8.85 seconds) suminf.   46.79513 (444) obj. 44440.8 iterations 258
Cbc0038I Pass 144: (8.95 seconds) suminf.   42.76800 (441) obj. 44440.8 iterations 558
Cbc0038I Pass 145: (9.01 seconds) suminf.   41.32866 (458) obj. 44440.8 iterations 365
Cbc0038I Pass 146: (9.08 seconds) suminf.   41.88595 (449) obj. 44440.8 iterations 341
Cbc0038I Pass 147: (9.11 seconds) suminf.   43.25845 (436) obj. 44440.8 iterations 160
Cbc0038I Pass 148: (9.12 seconds) suminf.   43.02217 (444) obj. 44440.8 iterations 28
Cbc0038I Pass 149: (9.19 seconds) suminf.   40.59636 (428) obj. 44440.8 iterations 379
Cbc0038I Pass 150: (9.23 seconds) suminf.   39.92305 (436) obj. 44440.8 iterations 192
Cbc0038I Pass 151: (9.27 seconds) suminf.   40.02560 (432) obj. 44440.8 iterations 198
Cbc0038I Pass 152: (9.35 seconds) suminf.   38.00396 (443) obj. 44440.8 iterations 454
Cbc0038I Pass 153: (9.39 seconds) suminf.   36.28289 (443) obj. 44440.8 iterations 182
Cbc0038I Pass 154: (9.54 seconds) suminf.   36.57470 (431) obj. 44440.8 iterations 889
Cbc0038I Pass 155: (9.60 seconds) suminf.   33.89021 (434) obj. 44440.8 iterations 344
Cbc0038I Pass 156: (9.70 seconds) suminf.   40.06075 (423) obj. 44440.8 iterations 616
Cbc0038I Pass 157: (9.75 seconds) suminf.   36.82814 (426) obj. 44440.8 iterations 233
Cbc0038I Pass 158: (9.85 seconds) suminf.   37.82618 (424) obj. 44440.8 iterations 641
Cbc0038I Pass 159: (9.91 seconds) suminf.   37.33495 (405) obj. 44440.8 iterations 305
Cbc0038I Pass 160: (10.01 seconds) suminf.   38.29670 (421) obj. 44440.8 iterations 529
Cbc0038I Pass 161: (10.05 seconds) suminf.   35.77770 (425) obj. 44440.8 iterations 194
Cbc0038I Pass 162: (10.05 seconds) suminf.   35.44767 (426) obj. 44440.8 iterations 8
Cbc0038I Pass 163: (10.15 seconds) suminf.   35.99191 (413) obj. 44440.8 iterations 522
Cbc0038I Pass 164: (10.20 seconds) suminf.   35.54770 (410) obj. 44440.8 iterations 303
Cbc0038I Pass 165: (10.21 seconds) suminf.   35.26093 (410) obj. 44440.8 iterations 2
Cbc0038I Pass 166: (10.28 seconds) suminf.   36.92261 (405) obj. 44440.8 iterations 423
Cbc0038I Pass 167: (10.34 seconds) suminf.   37.19706 (418) obj. 44440.8 iterations 275
Cbc0038I Pass 168: (10.36 seconds) suminf.   36.91718 (408) obj. 44440.8 iterations 93
Cbc0038I Pass 169: (10.39 seconds) suminf.   35.63859 (417) obj. 44440.8 iterations 115
Cbc0038I Pass 170: (10.41 seconds) suminf.   35.08149 (402) obj. 44440.8 iterations 67
Cbc0038I Pass 171: (10.47 seconds) suminf.   34.90511 (402) obj. 44440.8 iterations 340
Cbc0038I Pass 172: (10.52 seconds) suminf.   33.12917 (394) obj. 44440.8 iterations 294
Cbc0038I Pass 173: (10.53 seconds) suminf.   33.12917 (394) obj. 44440.8 iterations 5
Cbc0038I Pass 174: (10.61 seconds) suminf.   33.09449 (369) obj. 44440.8 iterations 494
Cbc0038I Pass 175: (10.68 seconds) suminf.   30.06320 (376) obj. 44440.8 iterations 379
Cbc0038I Pass 176: (10.71 seconds) suminf.   31.70234 (389) obj. 44440.8 iterations 139
Cbc0038I Pass 177: (10.80 seconds) suminf.   32.62490 (362) obj. 44440.8 iterations 590
Cbc0038I Pass 178: (10.85 seconds) suminf.   28.53991 (354) obj. 44440.8 iterations 337
Cbc0038I Pass 179: (10.89 seconds) suminf.   28.34811 (349) obj. 44440.8 iterations 174
Cbc0038I Pass 180: (10.93 seconds) suminf.   29.37159 (344) obj. 44440.8 iterations 216
Cbc0038I Pass 181: (11.04 seconds) suminf.   29.22164 (372) obj. 44440.8 iterations 670
Cbc0038I Pass 182: (11.07 seconds) suminf.   29.01073 (382) obj. 44440.8 iterations 124
Cbc0038I Pass 183: (11.10 seconds) suminf.   28.50875 (360) obj. 44440.8 iterations 151
Cbc0038I Pass 184: (11.16 seconds) suminf.   27.75032 (339) obj. 44440.8 iterations 389
Cbc0038I Pass 185: (11.19 seconds) suminf.   26.01605 (344) obj. 44440.8 iterations 119
Cbc0038I Pass 186: (11.32 seconds) suminf.   26.96094 (345) obj. 44440.8 iterations 864
Cbc0038I Pass 187: (11.36 seconds) suminf.   26.47163 (361) obj. 44440.8 iterations 197
Cbc0038I Pass 188: (11.43 seconds) suminf.   24.76391 (336) obj. 44440.8 iterations 418
Cbc0038I Pass 189: (11.47 seconds) suminf.   25.68814 (311) obj. 44440.8 iterations 183
Cbc0038I Pass 190: (11.60 seconds) suminf.   27.95216 (342) obj. 44440.8 iterations 871
Cbc0038I Pass 191: (11.64 seconds) suminf.   27.12834 (349) obj. 44440.8 iterations 184
Cbc0038I Pass 192: (11.64 seconds) suminf.   27.10060 (350) obj. 44440.8 iterations 7
Cbc0038I Pass 193: (11.74 seconds) suminf.   24.48451 (304) obj. 44440.8 iterations 640
Cbc0038I Pass 194: (11.78 seconds) suminf.   23.68893 (320) obj. 44440.8 iterations 236
Cbc0038I Pass 195: (11.87 seconds) suminf.   27.34530 (317) obj. 44440.8 iterations 562
Cbc0038I Pass 196: (11.91 seconds) suminf.   24.13967 (326) obj. 44440.8 iterations 221
Cbc0038I Pass 197: (11.96 seconds) suminf.   22.76318 (286) obj. 44440.8 iterations 301
Cbc0038I Pass 198: (11.99 seconds) suminf.   22.33107 (283) obj. 44440.8 iterations 176
Cbc0038I Pass 199: (12.08 seconds) suminf.   26.54367 (282) obj. 44440.8 iterations 652
Cbc0038I Pass 200: (12.12 seconds) suminf.   26.37742 (280) obj. 44440.8 iterations 175
Cbc0038I Pass 201: (12.16 seconds) suminf.   24.99954 (275) obj. 44440.8 iterations 224
Cbc0038I Pass 202: (12.19 seconds) suminf.   21.45703 (292) obj. 44440.8 iterations 216
Cbc0038I Pass 203: (12.30 seconds) suminf.   22.37881 (281) obj. 44440.8 iterations 758
Cbc0038I Pass 204: (12.36 seconds) suminf.   22.14092 (280) obj. 44440.8 iterations 444
Cbc0038I Pass 205: (12.40 seconds) suminf.   20.76206 (286) obj. 44440.8 iterations 230
Cbc0038I Pass 206: (12.51 seconds) suminf.   22.42611 (265) obj. 44440.8 iterations 833
Cbc0038I Pass 207: (12.54 seconds) suminf.   22.18115 (263) obj. 44440.8 iterations 126
Cbc0038I Pass 208: (12.60 seconds) suminf.   19.79107 (258) obj. 44440.8 iterations 377
Cbc0038I Pass 209: (12.64 seconds) suminf.   19.64187 (260) obj. 44440.8 iterations 191
Cbc0038I Pass 210: (12.68 seconds) suminf.   20.26391 (269) obj. 44440.8 iterations 179
Cbc0038I Pass 211: (12.73 seconds) suminf.   20.25815 (270) obj. 44440.8 iterations 348
Cbc0038I Pass 212: (12.77 seconds) suminf.   19.99407 (264) obj. 44440.8 iterations 182
Cbc0038I Pass 213: (12.84 seconds) suminf.   24.26975 (243) obj. 44440.8 iterations 444
Cbc0038I Pass 214: (12.87 seconds) suminf.   22.39691 (262) obj. 44440.8 iterations 162
Cbc0038I Pass 215: (12.88 seconds) suminf.   21.09440 (265) obj. 44440.8 iterations 40
Cbc0038I Pass 216: (12.93 seconds) suminf.   21.96165 (249) obj. 44440.8 iterations 309
Cbc0038I Pass 217: (12.96 seconds) suminf.   21.34797 (254) obj. 44440.8 iterations 157
Cbc0038I Pass 218: (13.02 seconds) suminf.   21.37175 (261) obj. 44440.8 iterations 374
Cbc0038I Pass 219: (13.05 seconds) suminf.   20.50328 (264) obj. 44440.8 iterations 139
Cbc0038I Pass 220: (13.11 seconds) suminf.   22.58949 (254) obj. 44440.8 iterations 353
Cbc0038I Pass 221: (13.13 seconds) suminf.   21.68650 (256) obj. 44440.8 iterations 136
Cbc0038I Pass 222: (13.20 seconds) suminf.   21.26630 (256) obj. 44440.8 iterations 403
Cbc0038I Pass 223: (13.23 seconds) suminf.   20.18423 (244) obj. 44440.8 iterations 167
Cbc0038I Pass 224: (13.29 seconds) suminf.   20.48992 (260) obj. 44440.8 iterations 364
Cbc0038I Pass 225: (13.31 seconds) suminf.   21.30145 (262) obj. 44440.8 iterations 127
Cbc0038I Pass 226: (13.38 seconds) suminf.   22.05890 (240) obj. 44440.8 iterations 430
Cbc0038I Pass 227: (13.42 seconds) suminf.   21.80084 (237) obj. 44440.8 iterations 176
Cbc0038I Pass 228: (13.48 seconds) suminf.   22.94352 (234) obj. 44440.8 iterations 451
Cbc0038I Pass 229: (13.52 seconds) suminf.   22.38842 (231) obj. 44440.8 iterations 180
Cbc0038I Pass 230: (13.60 seconds) suminf.   22.85255 (227) obj. 44440.8 iterations 598
Cbc0038I Pass 231: (13.65 seconds) suminf.   22.44330 (243) obj. 44440.8 iterations 252
Cbc0038I Pass 232: (13.72 seconds) suminf.   22.99797 (227) obj. 44440.8 iterations 551
Cbc0038I Pass 233: (13.78 seconds) suminf.   20.70793 (232) obj. 44440.8 iterations 329
Cbc0038I Pass 234: (13.87 seconds) suminf.   23.37445 (242) obj. 44440.8 iterations 637
Cbc0038I Pass 235: (13.90 seconds) suminf.   22.45066 (241) obj. 44440.8 iterations 166
Cbc0038I Pass 236: (13.97 seconds) suminf.   21.65380 (234) obj. 44440.8 iterations 519
Cbc0038I Pass 237: (14.04 seconds) suminf.   19.85852 (237) obj. 44440.8 iterations 464
Cbc0038I Pass 238: (14.07 seconds) suminf.   19.45743 (238) obj. 44440.8 iterations 132
Cbc0038I Pass 239: (14.34 seconds) suminf.   82.58546 (464) obj. 44440.8 iterations 1543
Cbc0038I No solution found this major pass
Cbc0038I Before mini branch and bound, 138 integers at bound fixed and 0 continuous
Cbc0038I Full problem 3621 rows 1141 columns, reduced to 3319 rows 1003 columns - 206 fixed gives 1963, 577 - still too large
Cbc0038I Mini branch and bound did not improve solution (14.78 seconds)
Cbc0038I After 14.78 seconds - Feasibility pump exiting with objective of 48128 - took 14.04 seconds
Cbc0012I Integer solution of 48128 found by feasibility pump after 0 iterations and 0 nodes (14.78 seconds)
Cbc0038I Full problem 3621 rows 1141 columns, reduced to 2659 rows 689 columns - 197 fixed gives 1547, 386 - ok now
Cbc0031I 47 added rows had average density of 10.723404
Cbc0013I At root node, 47 cuts changed objective from 29696 to 34816 in 10 passes
Cbc0014I Cut generator 0 (Probing) - 63 row cuts average 2.9 elements, 2 column cuts (2 active)  in 0.073 seconds - new frequency is 1
Cbc0014I Cut generator 1 (Gomory) - 173 row cuts average 325.9 elements, 0 column cuts (0 active)  in 0.322 seconds - new frequency is 1
Cbc0014I Cut generator 2 (Knapsack) - 0 row cuts average 0.0 elements, 0 column cuts (0 active)  in 0.013 seconds - new frequency is -100
Cbc0014I Cut generator 3 (Clique) - 0 row cuts average 0.0 elements, 0 column cuts (0 active)  in 0.017 seconds - new frequency is -100
Cbc0014I Cut generator 4 (MixedIntegerRounding2) - 0 row cuts average 0.0 elements, 0 column cuts (0 active)  in 0.016 seconds - new frequency is -100
Cbc0014I Cut generator 5 (FlowCover) - 0 row cuts average 0.0 elements, 0 column cuts (0 active)  in 0.012 seconds - new frequency is -100
Cbc0014I Cut generator 6 (TwoMirCuts) - 248 row cuts average 12.1 elements, 0 column cuts (0 active)  in 0.158 seconds - new frequency is 1
Cbc0014I Cut generator 7 (ZeroHalf) - 8 row cuts average 4.5 elements, 0 column cuts (0 active)  in 0.338 seconds - new frequency is -100
Cbc0010I After 0 nodes, 1 on tree, 48128 best solution, best possible 34816 (23.72 seconds)
Cbc0038I Full problem 3621 rows 1141 columns, reduced to 2630 rows 719 columns - 186 fixed gives 1558, 398 - ok now
Cbc0038I Full problem 3621 rows 1141 columns, reduced to 2442 rows 657 columns - 191 fixed gives 1393, 343 - ok now
Cbc0010I After 100 nodes, 6 on tree, 48128 best solution, best possible 34820 (100.11 seconds)
Cbc0038I Full problem 3621 rows 1141 columns, reduced to 2685 rows 704 columns - 196 fixed gives 1569, 393 - ok now
Cbc0010I After 200 nodes, 1 on tree, 48128 best solution, best possible 34837 (152.57 seconds)
Cbc0038I Full problem 3621 rows 1141 columns, reduced to 2675 rows 700 columns - 195 fixed gives 1566, 392 - ok now
Cbc0010I After 300 nodes, 1 on tree, 48128 best solution, best possible 34864 (198.33 seconds)
Cbc0010I After 400 nodes, 2 on tree, 48128 best solution, best possible 34888 (241.74 seconds)
Cbc0010I After 500 nodes, 2 on tree, 48128 best solution, best possible 34912 (280.56 seconds)
Cbc0038I Full problem 3621 rows 1141 columns, reduced to 2677 rows 698 columns - 196 fixed gives 1560, 389 - ok now
Cbc0010I After 600 nodes, 2 on tree, 48128 best solution, best possible 34936 (315.28 seconds)
Cbc0038I Full problem 3621 rows 1141 columns, reduced to 2675 rows 699 columns - 197 fixed gives 1559, 389 - ok now
Cbc0010I After 700 nodes, 1 on tree, 48128 best solution, best possible 34960 (351.40 seconds)
Cbc0038I Full problem 3621 rows 1141 columns, reduced to 2680 rows 700 columns - 197 fixed gives 1560, 390 - ok now
Cbc0010I After 800 nodes, 1 on tree, 48128 best solution, best possible 34984 (388.19 seconds)
Cbc0038I Full problem 3621 rows 1141 columns, reduced to 2680 rows 700 columns - 197 fixed gives 1560, 390 - ok now
Cbc0010I After 900 nodes, 1 on tree, 48128 best solution, best possible 35007 (426.91 seconds)
Cbc0038I Full problem 3621 rows 1141 columns, reduced to 2685 rows 701 columns - 196 fixed gives 1566, 392 - ok now
Cbc0010I After 1000 nodes, 1 on tree, 48128 best solution, best possible 35032 (460.31 seconds)
Cbc0010I After 1100 nodes, 1 on tree, 48128 best solution, best possible 35059 (494.18 seconds)
Cbc0010I After 1200 nodes, 2 on tree, 48128 best solution, best possible 35084 (529.55 seconds)
Cbc0010I After 1300 nodes, 1 on tree, 48128 best solution, best possible 35109 (562.81 seconds)
Cbc0010I After 1400 nodes, 1 on tree, 48128 best solution, best possible 35134 (595.09 seconds)
Cbc0010I After 1500 nodes, 1 on tree, 48128 best solution, best possible 35159 (627.92 seconds)
Cbc0010I After 1600 nodes, 1 on tree, 48128 best solution, best possible 35184 (659.36 seconds)
Cbc0010I After 1700 nodes, 1 on tree, 48128 best solution, best possible 35208 (695.10 seconds)
Cbc0010I After 1800 nodes, 2 on tree, 48128 best solution, best possible 35231 (728.52 seconds)
Cbc0010I After 1900 nodes, 3 on tree, 48128 best solution, best possible 35256 (760.18 seconds)
Cbc0010I After 2000 nodes, 2 on tree, 48128 best solution, best possible 35280 (791.65 seconds)
Cbc0010I After 2100 nodes, 1 on tree, 48128 best solution, best possible 35303 (822.98 seconds)
Cbc0038I Full problem 3621 rows 1141 columns, reduced to 2670 rows 698 columns - 192 fixed gives 1567, 393 - ok now
Cbc0010I After 2200 nodes, 1 on tree, 48128 best solution, best possible 35328 (856.50 seconds)
Cbc0010I After 2300 nodes, 2 on tree, 48128 best solution, best possible 35352 (889.43 seconds)
Cbc0010I After 2400 nodes, 2 on tree, 48128 best solution, best possible 35377 (947.24 seconds)
Cbc0010I After 2500 nodes, 2 on tree, 48128 best solution, best possible 35400 (1004.84 seconds)
Cbc0010I After 2600 nodes, 2 on tree, 48128 best solution, best possible 35425 (1049.14 seconds)
Cbc0010I After 2700 nodes, 1 on tree, 48128 best solution, best possible 35453 (1089.17 seconds)
Cbc0010I After 2800 nodes, 1 on tree, 48128 best solution, best possible 35493 (1137.37 seconds)
Cbc0010I After 2900 nodes, 1 on tree, 48128 best solution, best possible 35534 (1183.60 seconds)
Cbc0038I Full problem 3621 rows 1141 columns, reduced to 2638 rows 688 columns - 190 fixed gives 1549, 387 - ok now
Cbc0010I After 3000 nodes, 1 on tree, 48128 best solution, best possible 35579 (1229.94 seconds)
Cbc0010I After 3100 nodes, 1 on tree, 48128 best solution, best possible 35619 (1269.93 seconds)
Cbc0010I After 3200 nodes, 1 on tree, 48128 best solution, best possible 35668 (1313.77 seconds)
Cbc0010I After 3300 nodes, 1 on tree, 48128 best solution, best possible 35717 (1362.49 seconds)
Cbc0010I After 3400 nodes, 1 on tree, 48128 best solution, best possible 35764 (1409.74 seconds)
Cbc0010I After 3500 nodes, 1 on tree, 48128 best solution, best possible 35802 (1464.54 seconds)
Cbc0010I After 3600 nodes, 2 on tree, 48128 best solution, best possible 35833 (1511.10 seconds)
Cbc0010I After 3700 nodes, 2 on tree, 48128 best solution, best possible 35864 (1563.43 seconds)
Cbc0010I After 3800 nodes, 1 on tree, 48128 best solution, best possible 35891 (1608.21 seconds)
Cbc0010I After 3900 nodes, 1 on tree, 48128 best solution, best possible 35920 (1655.13 seconds)
Cbc0010I After 4000 nodes, 2 on tree, 48128 best solution, best possible 35949 (1700.36 seconds)
Cbc0010I After 4100 nodes, 1 on tree, 48128 best solution, best possible 35973 (1743.84 seconds)
Cbc0038I Full problem 3621 rows 1141 columns, reduced to 2608 rows 680 columns - 192 fixed gives 1525, 382 - ok now
Cbc0010I After 4200 nodes, 1 on tree, 48128 best solution, best possible 36009 (1792.71 seconds)
Cbc0020I Exiting on maximum time
Cbc0005I Partial search - best objective 48128 (best possible 36009), took 5778824 iterations and 4213 nodes (1799.72 seconds)
Cbc0032I Strong branching done 16914 times (1445559 iterations), fathomed 543 nodes and fixed 1070 variables
Cbc0035I Maximum depth 1197, 0 variables fixed on reduced cost
Cuts at root node changed objective from 29696 to 34816
Probing was tried 3500 times and created 89770 cuts of which 0 were active after adding rounds of cuts (17.850 seconds)
Gomory was tried 2767 times and created 1387 cuts of which 0 were active after adding rounds of cuts (17.781 seconds)
Knapsack was tried 10 times and created 0 cuts of which 0 were active after adding rounds of cuts (0.013 seconds)
Clique was tried 10 times and created 0 cuts of which 0 were active after adding rounds of cuts (0.017 seconds)
MixedIntegerRounding2 was tried 10 times and created 0 cuts of which 0 were active after adding rounds of cuts (0.016 seconds)
FlowCover was tried 10 times and created 0 cuts of which 0 were active after adding rounds of cuts (0.012 seconds)
TwoMirCuts was tried 2767 times and created 42048 cuts of which 0 were active after adding rounds of cuts (6.105 seconds)
ZeroHalf was tried 10 times and created 8 cuts of which 0 were active after adding rounds of cuts (0.338 seconds)

Result - Stopped on time limit

Objective value:                48128.00000000
Lower bound:                    36009.000
Gap:                            0.34
Enumerated nodes:               4213
Total iterations:               5778824
Time (CPU seconds):             1799.86
Time (Wallclock seconds):       1800.24

Total time (CPU seconds):       1799.88   (Wallclock seconds):       1800.26

